51156 17 833 3775 54482 1
51056 19 931 4175 55244 0.88
50930 22 1078 4920 55582 0.94
51040 23 1127 5043 55980 1
51704 16 784 3565 54774 0.98
51748 18 882 4432 56502 0.94
51326 15 735 3303 55472 0.98
51820 15 735 3309 55802 0.98
51776 15 735 3386 54844 0.92
51876 15 735 3798 56092 0.94
